24

1 18 23
2 24 22
3 12 8
4 19 8
5 14 21
6 2 5
7 7 24
8 3 9
9 22 19
10 22 13
11 13 5
12 7 23
13 20 21
14 12 1
15 18 23
16 6 16
17 1 11
18 15 6
19 15 19
20 24 18
21 12 12
22 24 19
23 24 22
24 10 24

6
